(set-info :source |printed by MathSAT|)
(declare-fun |!{$(in_main#0)<N>}| () Int)
(declare-fun |!{$(in_main#0)<N>}.next| () Int)
(declare-fun |!{$(in_main#0)<&array>}| () Int)
(declare-fun |!{$(in_main#0)<&array>}.next| () Int)
(declare-fun |!{$(in_main#0)<k>}| () Int)
(declare-fun |!{$(in_main#0)<k>}.next| () Int)
(declare-fun |!{$(in_main#0)<k#1>}| () Int)
(declare-fun |!{$(in_main#0)<k#1>}.next| () Int)
(declare-fun |!{$(in_main#0)<min>}| () Int)
(declare-fun |!{$(in_main#0)<min>}.next| () Int)
(declare-fun |!{%memaddr}| () Int)
(declare-fun |!{%memaddr}.next| () Int)
(declare-fun |!{%mem.0}| () (Array Int Int))
(declare-fun |!{%mem.0}.next| () (Array Int Int))
(declare-fun |!{$(in_main#0)<$(in___VERIFIER_nondet_int#1)<h#<__VERIFIER_nondet_int.return>>>}| () Int)
(declare-fun |!{$(in_main#0)<$(in___VERIFIER_nondet_int#3)<h#<__VERIFIER_nondet_int.return>>>}| () Int)
(declare-fun |!{$(in_main#0)<$(in_rec_array_min#4)<$temp.1>>}| () Int)
(declare-fun |!{$(in_main#0)<$(in_rec_array_min#4)<min>>}| () Int)
(declare-fun |!{$(in_main#0)<$(in_rec_array_min#4)<$tmp>>}| () Int)
(declare-fun |!{$(in_main#0)<$(in_rec_array_min#4)<$(in_rec_array_min#0)<$temp.1>>>}| () Int)
(declare-fun |!{$(in_main#0)<$(in_rec_array_min#4)<$(in_rec_array_min#0)<min>>>}| () Int)
(declare-fun |!{$(in_main#0)<$(in_rec_array_min#4)<$(in_rec_array_min#0)<$tmp>>>}| () Int)
(declare-fun !pc () Int)
(declare-fun !pc.next () Int)
(declare-fun |%{$(in_main#0)<k#1>}#1| () Int)
(declare-fun |%{$(in_main#0)<min>}#1| () Int)
(declare-fun rec_array_min<0> (Int Int Int) Int)
(declare-fun |%{$(in_main#0)<$(in_rec_array_min#4)<$(in_rec_array_min#0)<$temp.1>>>}#3| () Int)
(declare-fun |%{$(in_main#0)<$(in_rec_array_min#4)<$(in_rec_array_min#0)<min>>>}#3| () Int)
(declare-fun |%{$(in_main#0)<$(in_rec_array_min#4)<$(in_rec_array_min#0)<$tmp>>>}#3| () Int)
(declare-fun |%{$(in_main#0)<$(in_rec_array_min#4)<$(in_rec_array_min#0)<rec_array_min.return>>>}#3| () Int)
(declare-fun |%{$(in_main#0)<$(in_rec_array_min#4)<$temp.1>>}#3| () Int)
(declare-fun |%{$(in_main#0)<$(in_rec_array_min#4)<min>>}#3| () Int)
(declare-fun |%{$(in_main#0)<$(in_rec_array_min#4)<$tmp>>}#3| () Int)
(declare-fun |%{$(in_main#0)<$(in_rec_array_min#4)<rec_array_min.return>>}#3| () Int)
(define-fun .def_56 () Int (! !pc :next !pc.next))
(define-fun .def_59 () Bool (! (= .def_56 2) :init true))
(define-fun .def_270 () Bool (= .def_56 49))
(define-fun .def_144 () Bool (= !pc.next 149))
(define-fun .def_273 () Bool (and .def_144 .def_270))
(define-fun .def_264 () Bool (= |!{$(in_main#0)<min>}.next| |%{$(in_main#0)<$(in_rec_array_min#4)<rec_array_min.return>>}#3|))
(define-fun .def_262 () Bool (= |!{$(in_main#0)<k#1>}.next| 0))
(define-fun .def_10 () Int (! |!{$(in_main#0)<&array>}| :next |!{$(in_main#0)<&array>}.next|))
(define-fun .def_107 () Bool (= .def_10 |!{$(in_main#0)<&array>}.next|))
(define-fun .def_8 () Int (! |!{$(in_main#0)<N>}| :next |!{$(in_main#0)<N>}.next|))
(define-fun .def_105 () Bool (= .def_8 |!{$(in_main#0)<N>}.next|))
(define-fun .def_119 () Bool (and .def_105 .def_107))
(define-fun .def_12 () Int (! |!{$(in_main#0)<k>}| :next |!{$(in_main#0)<k>}.next|))
(define-fun .def_109 () Bool (= .def_12 |!{$(in_main#0)<k>}.next|))
(define-fun .def_120 () Bool (and .def_109 .def_119))
(define-fun .def_263 () Bool (and .def_120 .def_262))
(define-fun .def_265 () Bool (and .def_263 .def_264))
(define-fun .def_18 () Int (! |!{%memaddr}| :next |!{%memaddr}.next|))
(define-fun .def_115 () Bool (= .def_18 |!{%memaddr}.next|))
(define-fun .def_266 () Bool (and .def_115 .def_265))
(define-fun .def_20 () (Array Int Int) (! |!{%mem.0}| :next |!{%mem.0}.next|))
(define-fun .def_87 () Bool (= .def_20 |!{%mem.0}.next|))
(define-fun .def_267 () Bool (and .def_87 .def_266))
(define-fun .def_247 () Bool (= |%{$(in_main#0)<$(in_rec_array_min#4)<$(in_rec_array_min#0)<rec_array_min.return>>>}#3| |%{$(in_main#0)<$(in_rec_array_min#4)<rec_array_min.return>>}#3|))
(define-fun .def_162 () Int (select .def_20 .def_10))
(define-fun .def_212 () Bool (<= .def_162 |%{$(in_main#0)<$(in_rec_array_min#4)<$(in_rec_array_min#0)<rec_array_min.return>>>}#3|))
(define-fun .def_237 () Bool (not .def_212))
(define-fun .def_168 () Int (rec_array_min<0> .def_10 2 .def_8))
(define-fun .def_203 () Bool (= .def_168 |%{$(in_main#0)<$(in_rec_array_min#4)<$(in_rec_array_min#0)<rec_array_min.return>>>}#3|))
(define-fun .def_165 () Int (+ .def_10 1))
(define-fun .def_166 () Int (select .def_20 .def_165))
(define-fun .def_169 () Bool (<= .def_166 .def_168))
(define-fun .def_196 () Bool (not .def_169))
(define-fun .def_164 () Bool (= .def_8 2))
(define-fun .def_167 () Bool (not .def_164))
(define-fun .def_197 () Bool (and .def_167 .def_196))
(define-fun .def_205 () Bool (and .def_197 .def_203))
(define-fun .def_178 () Bool (= .def_168 |%{$(in_main#0)<$(in_rec_array_min#4)<$(in_rec_array_min#0)<$temp.1>>>}#3|))
(define-fun .def_206 () Bool (and .def_178 .def_205))
(define-fun .def_184 () Bool (= .def_168 |%{$(in_main#0)<$(in_rec_array_min#4)<$(in_rec_array_min#0)<min>>>}#3|))
(define-fun .def_207 () Bool (and .def_184 .def_206))
(define-fun .def_190 () Bool (= .def_168 |%{$(in_main#0)<$(in_rec_array_min#4)<$(in_rec_array_min#0)<$tmp>>>}#3|))
(define-fun .def_208 () Bool (and .def_190 .def_207))
(define-fun .def_202 () Bool (= .def_166 |%{$(in_main#0)<$(in_rec_array_min#4)<$(in_rec_array_min#0)<rec_array_min.return>>>}#3|))
(define-fun .def_172 () Bool (and .def_167 .def_169))
(define-fun .def_180 () Bool (and .def_172 .def_178))
(define-fun .def_186 () Bool (and .def_180 .def_184))
(define-fun .def_192 () Bool (and .def_186 .def_190))
(define-fun .def_189 () Bool (= |!{$(in_main#0)<$(in_rec_array_min#4)<$(in_rec_array_min#0)<$tmp>>>}| |%{$(in_main#0)<$(in_rec_array_min#4)<$(in_rec_array_min#0)<$tmp>>>}#3|))
(define-fun .def_183 () Bool (= |!{$(in_main#0)<$(in_rec_array_min#4)<$(in_rec_array_min#0)<min>>>}| |%{$(in_main#0)<$(in_rec_array_min#4)<$(in_rec_array_min#0)<min>>>}#3|))
(define-fun .def_177 () Bool (= |!{$(in_main#0)<$(in_rec_array_min#4)<$(in_rec_array_min#0)<$temp.1>>>}| |%{$(in_main#0)<$(in_rec_array_min#4)<$(in_rec_array_min#0)<$temp.1>>>}#3|))
(define-fun .def_179 () Bool (and .def_164 .def_177))
(define-fun .def_185 () Bool (and .def_179 .def_183))
(define-fun .def_191 () Bool (and .def_185 .def_189))
(define-fun .def_193 () Bool (or .def_191 .def_192))
(define-fun .def_204 () Bool (and .def_193 .def_202))
(define-fun .def_209 () Bool (or .def_204 .def_208))
(define-fun .def_238 () Bool (and .def_209 .def_237))
(define-fun .def_161 () Bool (= .def_8 1))
(define-fun .def_163 () Bool (not .def_161))
(define-fun .def_239 () Bool (and .def_163 .def_238))
(define-fun .def_220 () Bool (= |%{$(in_main#0)<$(in_rec_array_min#4)<$(in_rec_array_min#0)<rec_array_min.return>>>}#3| |%{$(in_main#0)<$(in_rec_array_min#4)<$temp.1>>}#3|))
(define-fun .def_241 () Bool (and .def_220 .def_239))
(define-fun .def_226 () Bool (= |%{$(in_main#0)<$(in_rec_array_min#4)<$(in_rec_array_min#0)<rec_array_min.return>>>}#3| |%{$(in_main#0)<$(in_rec_array_min#4)<min>>}#3|))
(define-fun .def_242 () Bool (and .def_226 .def_241))
(define-fun .def_232 () Bool (= |%{$(in_main#0)<$(in_rec_array_min#4)<$(in_rec_array_min#0)<rec_array_min.return>>>}#3| |%{$(in_main#0)<$(in_rec_array_min#4)<$tmp>>}#3|))
(define-fun .def_243 () Bool (and .def_232 .def_242))
(define-fun .def_249 () Bool (and .def_243 .def_247))
(define-fun .def_246 () Bool (= .def_162 |%{$(in_main#0)<$(in_rec_array_min#4)<rec_array_min.return>>}#3|))
(define-fun .def_214 () Bool (and .def_209 .def_212))
(define-fun .def_215 () Bool (and .def_163 .def_214))
(define-fun .def_222 () Bool (and .def_215 .def_220))
(define-fun .def_228 () Bool (and .def_222 .def_226))
(define-fun .def_234 () Bool (and .def_228 .def_232))
(define-fun .def_231 () Bool (= |!{$(in_main#0)<$(in_rec_array_min#4)<$tmp>>}| |%{$(in_main#0)<$(in_rec_array_min#4)<$tmp>>}#3|))
(define-fun .def_225 () Bool (= |!{$(in_main#0)<$(in_rec_array_min#4)<min>>}| |%{$(in_main#0)<$(in_rec_array_min#4)<min>>}#3|))
(define-fun .def_219 () Bool (= |!{$(in_main#0)<$(in_rec_array_min#4)<$temp.1>>}| |%{$(in_main#0)<$(in_rec_array_min#4)<$temp.1>>}#3|))
(define-fun .def_221 () Bool (and .def_161 .def_219))
(define-fun .def_227 () Bool (and .def_221 .def_225))
(define-fun .def_233 () Bool (and .def_227 .def_231))
(define-fun .def_235 () Bool (or .def_233 .def_234))
(define-fun .def_248 () Bool (and .def_235 .def_246))
(define-fun .def_250 () Bool (or .def_248 .def_249))
(define-fun .def_268 () Bool (and .def_250 .def_267))
(define-fun .def_155 () Bool (<= .def_8 .def_12))
(define-fun .def_269 () Bool (and .def_155 .def_268))
(define-fun .def_274 () Bool (and .def_269 .def_273))
(define-fun .def_91 () Bool (= !pc.next 49))
(define-fun .def_271 () Bool (and .def_91 .def_270))
(define-fun .def_157 () Int (+ .def_10 .def_12))
(define-fun .def_158 () (Array Int Int) (store .def_20 .def_157 |!{$(in_main#0)<$(in___VERIFIER_nondet_int#3)<h#<__VERIFIER_nondet_int.return>>>}|))
(define-fun .def_259 () Bool (= |!{%mem.0}.next| .def_158))
(define-fun .def_252 () Int (* (- 1) |!{$(in_main#0)<k>}.next|))
(define-fun .def_253 () Int (+ .def_12 .def_252))
(define-fun .def_254 () Bool (= .def_253 (- 1)))
(define-fun .def_255 () Bool (and .def_119 .def_254))
(define-fun .def_14 () Int (! |!{$(in_main#0)<k#1>}| :next |!{$(in_main#0)<k#1>}.next|))
(define-fun .def_111 () Bool (= .def_14 |!{$(in_main#0)<k#1>}.next|))
(define-fun .def_256 () Bool (and .def_111 .def_255))
(define-fun .def_16 () Int (! |!{$(in_main#0)<min>}| :next |!{$(in_main#0)<min>}.next|))
(define-fun .def_113 () Bool (= .def_16 |!{$(in_main#0)<min>}.next|))
(define-fun .def_257 () Bool (and .def_113 .def_256))
(define-fun .def_258 () Bool (and .def_115 .def_257))
(define-fun .def_260 () Bool (and .def_258 .def_259))
(define-fun .def_156 () Bool (not .def_155))
(define-fun .def_261 () Bool (and .def_156 .def_260))
(define-fun .def_272 () Bool (and .def_261 .def_271))
(define-fun .def_275 () Bool (or .def_272 .def_274))
(define-fun .def_148 () Bool (= !pc.next 0))
(define-fun .def_139 () Bool (= .def_56 149))
(define-fun .def_149 () Bool (and .def_139 .def_148))
(define-fun .def_94 () Bool (<= .def_8 .def_14))
(define-fun .def_131 () Bool (and .def_94 .def_105))
(define-fun .def_132 () Bool (and .def_107 .def_131))
(define-fun .def_133 () Bool (and .def_109 .def_132))
(define-fun .def_134 () Bool (and .def_111 .def_133))
(define-fun .def_135 () Bool (and .def_113 .def_134))
(define-fun .def_136 () Bool (and .def_115 .def_135))
(define-fun .def_137 () Bool (and .def_87 .def_136))
(define-fun .def_150 () Bool (and .def_137 .def_149))
(define-fun .def_145 () Bool (and .def_139 .def_144))
(define-fun .def_122 () Int (* (- 1) |!{$(in_main#0)<k#1>}.next|))
(define-fun .def_123 () Int (+ .def_14 .def_122))
(define-fun .def_124 () Bool (= .def_123 (- 1)))
(define-fun .def_125 () Bool (and .def_120 .def_124))
(define-fun .def_126 () Bool (and .def_113 .def_125))
(define-fun .def_127 () Bool (and .def_115 .def_126))
(define-fun .def_128 () Bool (and .def_87 .def_127))
(define-fun .def_96 () Int (+ .def_10 .def_14))
(define-fun .def_97 () Int (select .def_20 .def_96))
(define-fun .def_98 () Bool (<= .def_16 .def_97))
(define-fun .def_99 () Int (ite .def_98 1 0))
(define-fun .def_100 () Bool (= .def_99 0))
(define-fun .def_101 () Bool (not .def_100))
(define-fun .def_129 () Bool (and .def_101 .def_128))
(define-fun .def_95 () Bool (not .def_94))
(define-fun .def_130 () Bool (and .def_95 .def_129))
(define-fun .def_146 () Bool (and .def_130 .def_145))
(define-fun .def_141 () Bool (= !pc.next 169))
(define-fun .def_142 () Bool (and .def_139 .def_141))
(define-fun .def_106 () Bool (and .def_100 .def_105))
(define-fun .def_108 () Bool (and .def_106 .def_107))
(define-fun .def_110 () Bool (and .def_108 .def_109))
(define-fun .def_112 () Bool (and .def_110 .def_111))
(define-fun .def_114 () Bool (and .def_112 .def_113))
(define-fun .def_116 () Bool (and .def_114 .def_115))
(define-fun .def_117 () Bool (and .def_87 .def_116))
(define-fun .def_118 () Bool (and .def_95 .def_117))
(define-fun .def_143 () Bool (and .def_118 .def_142))
(define-fun .def_147 () Bool (or .def_143 .def_146))
(define-fun .def_151 () Bool (or .def_147 .def_150))
(define-fun .def_92 () Bool (and .def_59 .def_91))
(define-fun .def_85 () Bool (= |!{%memaddr}.next| 2))
(define-fun .def_83 () Bool (= |!{$(in_main#0)<min>}.next| |%{$(in_main#0)<min>}#1|))
(define-fun .def_81 () Bool (= |!{$(in_main#0)<k#1>}.next| |%{$(in_main#0)<k#1>}#1|))
(define-fun .def_79 () Bool (= |!{$(in_main#0)<k>}.next| 0))
(define-fun .def_77 () Bool (= |!{$(in_main#0)<&array>}.next| 1))
(define-fun .def_76 () Bool (= |!{$(in_main#0)<N>}.next| |!{$(in_main#0)<$(in___VERIFIER_nondet_int#1)<h#<__VERIFIER_nondet_int.return>>>}|))
(define-fun .def_78 () Bool (and .def_76 .def_77))
(define-fun .def_80 () Bool (and .def_78 .def_79))
(define-fun .def_82 () Bool (and .def_80 .def_81))
(define-fun .def_84 () Bool (and .def_82 .def_83))
(define-fun .def_86 () Bool (and .def_84 .def_85))
(define-fun .def_88 () Bool (and .def_86 .def_87))
(define-fun .def_71 () Bool (<= |!{$(in_main#0)<$(in___VERIFIER_nondet_int#1)<h#<__VERIFIER_nondet_int.return>>>}| 0))
(define-fun .def_72 () Bool (not .def_71))
(define-fun .def_73 () Int (ite .def_72 1 0))
(define-fun .def_74 () Bool (= .def_73 0))
(define-fun .def_75 () Bool (not .def_74))
(define-fun .def_89 () Bool (and .def_75 .def_88))
(define-fun .def_93 () Bool (and .def_89 .def_92))
(define-fun .def_152 () Bool (or .def_93 .def_151))
(define-fun .def_276 () Bool (! (or .def_152 .def_275) :trans true))
(define-fun .def_153 () Bool (= .def_56 169))
(define-fun .def_277 () Bool (! (not .def_153) :invar-property 0 :invar-property-name ||))
(assert true)
